sat
( (AtTime_AI_8 false)
  (AtTime_AI_9 false)
  (AtTime_AI_10 false)
  (AtTime_AI_11 true)
  (AtTime_Ara_8 false)
  (AtTime_Ara_9 true)
  (AtTime_Ara_10 false)
  (AtTime_Ara_11 false)
  (AtTime_Che1_8 true)
  (AtTime_Che1_9 false)
  (AtTime_Che1_10 false)
  (AtTime_Che1_11 false)
  (AtTime_Che2_8 false)
  (AtTime_Che2_9 false)
  (AtTime_Che2_10 true)
  (AtTime_Che2_11 false)
  (AtTime_Fin_8 false)
  (AtTime_Fin_9 true)
  (AtTime_Fin_10 false)
  (AtTime_Fin_11 false)
  (AtTime_Jap_8 false)
  (AtTime_Jap_9 false)
  (AtTime_Jap_10 true)
  (AtTime_Jap_11 false)
  (AtTime_Logic_8 false)
  (AtTime_Logic_9 false)
  (AtTime_Logic_10 true)
  (AtTime_Logic_11 false)
  (AtTime_Mat1_8 true)
  (AtTime_Mat1_9 false)
  (AtTime_Mat1_10 false)
  (AtTime_Mat1_11 false)
  (AtTime_Mat2_8 false)
  (AtTime_Mat2_9 false)
  (AtTime_Mat2_10 false)
  (AtTime_Mat2_11 true)
  (AtTime_Phy_8 true)
  (AtTime_Phy_9 false)
  (AtTime_Phy_10 false)
  (AtTime_Phy_11 false)
  (AtTime_Prog_8 false)
  (AtTime_Prog_9 true)
  (AtTime_Prog_10 false)
  (AtTime_Prog_11 false)
  (AtTime_Spa_8 false)
  (AtTime_Spa_9 false)
  (AtTime_Spa_10 false)
  (AtTime_Spa_11 true)
  (Teach_Andrew_AI false)
  (Teach_Andrew_Ara false)
  (Teach_Andrew_Che1 true)
  (Teach_Andrew_Che2 true)
  (Teach_Andrew_Fin false)
  (Teach_Andrew_Jap false)
  (Teach_Andrew_Logic false)
  (Teach_Andrew_Mat1 false)
  (Teach_Andrew_Mat2 true)
  (Teach_Andrew_Phy false)
  (Teach_Andrew_Prog true)
  (Teach_Andrew_Spa false)
  (Teach_Emily_AI false)
  (Teach_Emily_Ara true)
  (Teach_Emily_Che1 false)
  (Teach_Emily_Che2 false)
  (Teach_Emily_Fin false)
  (Teach_Emily_Jap false)
  (Teach_Emily_Logic true)
  (Teach_Emily_Mat1 false)
  (Teach_Emily_Mat2 false)
  (Teach_Emily_Phy true)
  (Teach_Emily_Prog false)
  (Teach_Emily_Spa true)
  (Teach_Phoebe_AI true)
  (Teach_Phoebe_Ara false)
  (Teach_Phoebe_Che1 false)
  (Teach_Phoebe_Che2 false)
  (Teach_Phoebe_Fin true)
  (Teach_Phoebe_Jap true)
  (Teach_Phoebe_Logic false)
  (Teach_Phoebe_Mat1 true)
  (Teach_Phoebe_Mat2 false)
  (Teach_Phoebe_Phy false)
  (Teach_Phoebe_Prog false)
  (Teach_Phoebe_Spa false) )
